*SENSE:Maximize
NAME          MODEL
ROWS
 N  OBJ
 L  C0000000
 L  C0000001
 L  C0000002
 L  C0000003
 L  C0000004
 L  C0000005
 L  C0000006
 L  C0000007
 L  C0000008
 L  C0000009
 L  C0000010
 L  C0000011
 L  C0000012
 L  C0000013
 L  C0000014
 L  C0000015
 L  C0000016
 L  C0000017
 L  C0000018
 L  C0000019
 L  C0000020
 L  C0000021
 L  C0000022
 L  C0000023
 L  C0000024
 L  C0000025
 L  C0000026
 L  C0000027
 L  C0000028
 L  C0000029
 L  C0000030
 L  C0000031
 L  C0000032
 L  C0000033
 L  C0000034
 L  C0000035
 L  C0000036
 L  C0000037
 L  C0000038
 L  C0000039
 L  C0000040
 L  C0000041
 L  C0000042
 L  C0000043
 L  C0000044
 L  C0000045
 L  C0000046
 L  C0000047
 L  C0000048
 L  C0000049
 L  C0000050
 L  C0000051
 L  C0000052
 L  C0000053
 L  C0000054
 L  C0000055
 L  C0000056
 L  C0000057
 L  C0000058
 L  C0000059
 L  C0000060
 L  C0000061
 L  C0000062
 L  C0000063
 L  C0000064
 L  C0000065
 L  C0000066
 L  C0000067
 L  C0000068
 L  C0000069
 L  C0000070
 L  C0000071
 L  C0000072
 L  C0000073
 L  C0000074
 L  C0000075
 L  C0000076
 L  C0000077
 L  C0000078
 L  C0000079
 L  C0000080
 L  C0000081
 L  C0000082
 L  C0000083
 L  C0000084
 L  C0000085
 L  C0000086
 L  C0000087
 L  C0000088
 L  C0000089
 L  C0000090
 L  C0000091
 L  C0000092
 L  C0000093
 L  C0000094
 L  C0000095
 L  C0000096
 L  C0000097
 L  C0000098
 L  C0000099
 L  C0000100
 L  C0000101
 L  C0000102
 L  C0000103
 L  C0000104
 L  C0000105
 L  C0000106
 L  C0000107
 L  C0000108
 L  C0000109
 L  C0000110
 L  C0000111
 L  C0000112
 L  C0000113
 L  C0000114
 L  C0000115
 L  C0000116
 L  C0000117
 L  C0000118
 L  C0000119
 L  C0000120
 L  C0000121
 L  C0000122
 L  C0000123
 L  C0000124
 L  C0000125
 L  C0000126
 L  C0000127
 L  C0000128
 L  C0000129
 L  C0000130
 L  C0000131
 L  C0000132
 L  C0000133
 L  C0000134
 L  C0000135
 L  C0000136
 L  C0000137
 L  C0000138
 L  C0000139
 L  C0000140
 L  C0000141
 L  C0000142
 L  C0000143
 L  C0000144
 L  C0000145
 L  C0000146
 L  C0000147
 L  C0000148
 L  C0000149
 L  C0000150
 L  C0000151
 L  C0000152
 L  C0000153
 L  C0000154
 L  C0000155
 L  C0000156
 L  C0000157
 L  C0000158
 L  C0000159
 L  C0000160
 L  C0000161
 L  C0000162
 L  C0000163
 L  C0000164
 L  C0000165
 L  C0000166
 L  C0000167
 L  C0000168
 L  C0000169
 L  C0000170
 L  C0000171
 L  C0000172
 L  C0000173
 L  C0000174
 L  C0000175
 L  C0000176
 L  C0000177
 L  C0000178
 L  C0000179
 L  C0000180
 L  C0000181
 L  C0000182
 L  C0000183
 L  C0000184
 L  C0000185
 L  C0000186
 L  C0000187
 L  C0000188
 L  C0000189
 L  C0000190
 L  C0000191
 L  C0000192
 L  C0000193
 L  C0000194
 L  C0000195
 L  C0000196
 L  C0000197
 L  C0000198
 L  C0000199
 L  C0000200
 L  C0000201
 L  C0000202
 L  C0000203
 L  C0000204
 L  C0000205
 L  C0000206
 L  C0000207
 L  C0000208
 L  C0000209
 L  C0000210
 L  C0000211
 L  C0000212
 L  C0000213
 L  C0000214
 E  C0000215
 E  C0000216
 L  C0000217
 E  C0000218
 E  C0000219
 L  C0000220
 E  C0000221
 E  C0000222
 L  C0000223
 E  C0000224
 L  C0000225
 E  C0000226
 L  C0000227
 L  C0000228
 L  C0000229
 L  C0000230
 L  C0000231
 L  C0000232
 L  C0000233
 L  C0000234
 L  C0000235
 L  C0000236
 L  C0000237
 L  C0000238
 L  C0000239
 L  C0000240
 L  C0000241
 L  C0000242
 E  C0000243
 E  C0000244
 L  C0000245
 E  C0000246
 E  C0000247
 L  C0000248
 L  C0000249
 L  C0000250
 L  C0000251
 L  C0000252
 L  C0000253
 L  C0000254
 L  C0000255
 L  C0000256
 L  C0000257
 L  C0000258
 L  C0000259
 L  C0000260
 L  C0000261
 L  C0000262
 L  C0000263
 E  C0000264
 E  C0000265
 L  C0000266
 E  C0000267
 E  C0000268
 L  C0000269
 E  C0000270
 E  C0000271
 L  C0000272
 L  C0000273
 L  C0000274
 L  C0000275
 L  C0000276
 L  C0000277
 L  C0000278
 L  C0000279
 L  C0000280
 L  C0000281
 L  C0000282
 L  C0000283
 L  C0000284
 L  C0000285
 L  C0000286
 L  C0000287
 L  C0000288
 L  C0000289
 L  C0000290
 L  C0000291
 E  C0000292
 E  C0000293
 L  C0000294
 E  C0000295
 E  C0000296
 L  C0000297
 E  C0000298
 E  C0000299
 L  C0000300
 E  C0000301
 L  C0000302
 L  C0000303
 L  C0000304
 L  C0000305
 L  C0000306
 L  C0000307
 L  C0000308
 L  C0000309
 L  C0000310
 L  C0000311
 L  C0000312
 L  C0000313
 L  C0000314
 L  C0000315
 L  C0000316
 L  C0000317
 L  C0000318
 L  C0000319
 L  C0000320
 L  C0000321
 L  C0000322
 L  C0000323
 L  C0000324
 L  C0000325
 L  C0000326
 L  C0000327
 L  C0000328
 L  C0000329
 L  C0000330
 L  C0000331
 L  C0000332
 L  C0000333
 L  C0000334
 L  C0000335
 L  C0000336
 L  C0000337
 L  C0000338
 L  C0000339
 L  C0000340
 L  C0000341
 L  C0000342
 L  C0000343
 L  C0000344
 L  C0000345
 L  C0000346
 L  C0000347
 L  C0000348
 L  C0000349
 L  C0000350
 L  C0000351
 L  C0000352
 L  C0000353
 L  C0000354
 L  C0000355
 L  C0000356
 L  C0000357
 L  C0000358
 L  C0000359
 L  C0000360
 L  C0000361
 L  C0000362
 L  C0000363
 L  C0000364
 L  C0000365
 L  C0000366
 L  C0000367
 L  C0000368
 L  C0000369
 L  C0000370
 L  C0000371
 L  C0000372
 L  C0000373
 L  C0000374
 L  C0000375
 L  C0000376
 L  C0000377
 L  C0000378
 L  C0000379
 L  C0000380
 L  C0000381
 L  C0000382
 L  C0000383
 L  C0000384
 L  C0000385
 L  C0000386
 L  C0000387
 L  C0000388
 L  C0000389
 L  C0000390
 L  C0000391
 L  C0000392
 L  C0000393
 L  C0000394
 L  C0000395
 L  C0000396
 L  C0000397
 L  C0000398
 L  C0000399
 L  C0000400
 L  C0000401
 L  C0000402
 L  C0000403
 L  C0000404
 L  C0000405
 L  C0000406
 L  C0000407
 L  C0000408
 L  C0000409
 L  C0000410
 L  C0000411
 L  C0000412
 L  C0000413
 L  C0000414
 L  C0000415
 L  C0000416
 L  C0000417
 L  C0000418
 L  C0000419
 L  C0000420
 L  C0000421
 L  C0000422
 L  C0000423
 L  C0000424
 L  C0000425
 L  C0000426
 L  C0000427
 L  C0000428
 L  C0000429
 L  C0000430
 L  C0000431
 L  C0000432
 L  C0000433
 L  C0000434
 L  C0000435
 L  C0000436
 L  C0000437
 L  C0000438
 L  C0000439
 L  C0000440
 L  C0000441
 L  C0000442
 L  C0000443
 L  C0000444
 L  C0000445
 L  C0000446
 L  C0000447
 L  C0000448
 L  C0000449
 L  C0000450
 L  C0000451
 L  C0000452
 L  C0000453
 L  C0000454
 L  C0000455
 L  C0000456
 L  C0000457
 L  C0000458
 L  C0000459
 L  C0000460
 L  C0000461
 L  C0000462
 L  C0000463
 L  C0000464
 L  C0000465
 L  C0000466
 L  C0000467
 L  C0000468
 L  C0000469
 L  C0000470
 L  C0000471
 L  C0000472
 L  C0000473
 L  C0000474
 L  C0000475
 L  C0000476
 L  C0000477
 L  C0000478
 L  C0000479
 L  C0000480
 L  C0000481
 L  C0000482
 L  C0000483
 L  C0000484
 L  C0000485
 L  C0000486
 L  C0000487
 L  C0000488
 L  C0000489
 L  C0000490
 L  C0000491
 L  C0000492
 L  C0000493
 L  C0000494
 L  C0000495
 L  C0000496
 L  C0000497
 L  C0000498
 L  C0000499
 L  C0000500
 L  C0000501
 L  C0000502
 L  C0000503
 L  C0000504
 L  C0000505
 L  C0000506
 L  C0000507
 L  C0000508
 L  C0000509
 L  C0000510
 L  C0000511
 L  C0000512
 L  C0000513
 L  C0000514
 L  C0000515
 L  C0000516
 L  C0000517
 L  C0000518
 L  C0000519
 L  C0000520
 L  C0000521
 L  C0000522
 L  C0000523
 L  C0000524
 L  C0000525
 L  C0000526
 L  C0000527
 L  C0000528
 L  C0000529
 L  C0000530
 L  C0000531
 L  C0000532
 L  C0000533
 L  C0000534
 L  C0000535
 L  C0000536
 L  C0000537
 L  C0000538
 L  C0000539
 L  C0000540
 L  C0000541
 L  C0000542
 L  C0000543
 L  C0000544
 L  C0000545
 L  C0000546
 L  C0000547
 L  C0000548
 L  C0000549
 L  C0000550
 L  C0000551
 L  C0000552
 L  C0000553
 L  C0000554
 L  C0000555
 L  C0000556
 L  C0000557
 L  C0000558
 L  C0000559
 L  C0000560
 L  C0000561
 L  C0000562
 L  C0000563
 L  C0000564
 L  C0000565
 L  C0000566
 L  C0000567
 L  C0000568
 L  C0000569
 L  C0000570
 L  C0000571
 L  C0000572
 L  C0000573
 L  C0000574
 L  C0000575
 L  C0000576
 L  C0000577
 L  C0000578
 L  C0000579
 L  C0000580
 L  C0000581
 L  C0000582
 L  C0000583
 L  C0000584
 L  C0000585
 L  C0000586
 L  C0000587
 L  C0000588
 L  C0000589
 L  C0000590
 L  C0000591
 L  C0000592
 L  C0000593
 L  C0000594
 L  C0000595
 L  C0000596
 L  C0000597
 L  C0000598
 L  C0000599
 L  C0000600
 L  C0000601
 L  C0000602
 L  C0000603
 L  C0000604
 L  C0000605
 L  C0000606
 L  C0000607
 L  C0000608
 L  C0000609
 L  C0000610
 L  C0000611
 L  C0000612
 L  C0000613
 L  C0000614
 L  C0000615
 L  C0000616
 L  C0000617
 L  C0000618
 L  C0000619
 L  C0000620
 L  C0000621
 L  C0000622
 L  C0000623
 L  C0000624
 L  C0000625
 L  C0000626
 L  C0000627
 L  C0000628
 L  C0000629
 L  C0000630
 L  C0000631
 L  C0000632
 L  C0000633
 L  C0000634
 L  C0000635
 L  C0000636
 L  C0000637
 L  C0000638
 L  C0000639
 L  C0000640
 L  C0000641
 L  C0000642
 L  C0000643
 L  C0000644
 L  C0000645
 L  C0000646
 L  C0000647
 L  C0000648
 L  C0000649
 L  C0000650
 L  C0000651
 L  C0000652
 L  C0000653
 L  C0000654
 L  C0000655
 L  C0000656
 L  C0000657
 L  C0000658
 L  C0000659
 L  C0000660
 L  C0000661
 L  C0000662
 L  C0000663
 L  C0000664
 L  C0000665
 L  C0000666
 L  C0000667
 L  C0000668
 L  C0000669
 L  C0000670
 L  C0000671
 L  C0000672
 L  C0000673
 L  C0000674
 L  C0000675
 L  C0000676
 L  C0000677
 L  C0000678
 L  C0000679
 L  C0000680
 L  C0000681
 L  C0000682
COLUMNS
    X0000000  C0000012   1.000000000000e+00
    X0000000  C0000196   1.000000000000e+00
